
Gurobi 9.5.2 (mac64[arm]) logging started Mon May  1 21:23:30 2023

Set parameter LogFile to value "Java/output/special_iterative/scenario_seed_0_nJob_40_machineCount_2/mip_increment_2/log.txt"
Gurobi Optimizer version 9.5.2 build v9.5.2rc0 (mac64[arm])
Thread count: 8 physical cores, 8 logical processors, using up to 8 threads
Optimize a model with 1181 rows, 8280 columns and 67016 nonzeros
Model fingerprint: 0x07081378
Variable types: 0 continuous, 8280 integer (8280 binary)
Coefficient statistics:
  Matrix range     [1e+00, 2e+02]
  Objective range  [6e+01, 4e+06]
  Bounds range     [1e+00, 1e+00]
  RHS range        [1e+00, 1e+00]
Presolve removed 142 rows and 1468 columns
Presolve time: 0.07s
Presolved: 1039 rows, 6812 columns, 55262 nonzeros
Variable types: 0 continuous, 6812 integer (6812 binary)

Root relaxation: objective 1.026328e+04, 1557 iterations, 0.06 seconds (0.11 work units)

    Nodes    |    Current Node    |     Objective Bounds      |     Work
 Expl Unexpl |  Obj  Depth IntInf | Incumbent    BestBd   Gap | It/Node Time

     0     0 10263.2815    0  151          - 10263.2815      -     -    0s
H    0     0                    4179392.0000 10263.2815   100%     -    0s
H    0     0                    12544.000000 10263.2815  18.2%     -    0s
H    0     0                    12480.000000 10263.2815  17.8%     -    0s
H    0     0                    12448.000000 10263.2815  17.6%     -    0s
     0     0 10405.5824    0  207 12448.0000 10405.5824  16.4%     -    0s
     0     0 10405.5824    0  154 12448.0000 10405.5824  16.4%     -    0s
H    0     0                    12384.000000 10405.5824  16.0%     -    0s
H    0     0                    12208.000000 10405.5824  14.8%     -    0s
     0     0 10426.4515    0  213 12208.0000 10426.4515  14.6%     -    0s
H    0     0                    11408.000000 10426.4515  8.60%     -    0s
H    0     0                    11312.000000 10426.4515  7.83%     -    0s
     0     0 10427.3396    0  217 11312.0000 10427.3396  7.82%     -    0s
     0     0 10427.4324    0  220 11312.0000 10427.4324  7.82%     -    0s
     0     0 10523.5647    0  248 11312.0000 10523.5647  6.97%     -    0s
     0     0 10525.3993    0  244 11312.0000 10525.3993  6.95%     -    0s
     0     0 10525.5362    0  243 11312.0000 10525.5362  6.95%     -    0s
     0     0 10525.5362    0  249 11312.0000 10525.5362  6.95%     -    0s
     0     0 10617.8337    0  255 11312.0000 10617.8337  6.14%     -    1s
H    0     0                    11280.000000 10617.8337  5.87%     -    1s
     0     0 10654.4843    0  261 11280.0000 10654.4843  5.55%     -    1s
     0     0 10662.3288    0  266 11280.0000 10662.3288  5.48%     -    1s
     0     0 10663.1460    0  266 11280.0000 10663.1460  5.47%     -    1s
     0     0 10663.2481    0  271 11280.0000 10663.2481  5.47%     -    1s
     0     0 10698.5844    0  275 11280.0000 10698.5844  5.15%     -    1s
     0     0 10715.6071    0  266 11280.0000 10715.6071  5.00%     -    1s
     0     0 10717.9760    0  281 11280.0000 10717.9760  4.98%     -    1s
     0     0 10718.3107    0  284 11280.0000 10718.3107  4.98%     -    1s
     0     0 10718.5466    0  284 11280.0000 10718.5466  4.98%     -    1s
     0     0 10727.9414    0  289 11280.0000 10727.9414  4.89%     -    1s
     0     0 10729.8138    0  276 11280.0000 10729.8138  4.88%     -    1s
     0     0 10731.5284    0  285 11280.0000 10731.5284  4.86%     -    1s
     0     0 10731.8804    0  291 11280.0000 10731.8804  4.86%     -    1s
     0     0 10731.8888    0  287 11280.0000 10731.8888  4.86%     -    1s
     0     0 10739.0329    0  288 11280.0000 10739.0329  4.80%     -    1s
     0     0 10739.3496    0  292 11280.0000 10739.3496  4.79%     -    1s
     0     0 10742.9992    0  264 11280.0000 10742.9992  4.76%     -    1s
     0     0 10744.3018    0  293 11280.0000 10744.3018  4.75%     -    1s
     0     0 10744.5378    0  284 11280.0000 10744.5378  4.75%     -    1s
     0     0 10745.4878    0  292 11280.0000 10745.4878  4.74%     -    1s
     0     0 10745.4878    0  283 11280.0000 10745.4878  4.74%     -    1s
H    0     2                    11216.000000 10745.8873  4.19%     -    2s
     0     2 10745.8873    0  275 11216.0000 10745.8873  4.19%     -    2s
H   34    40                    11152.000000 10770.0509  3.42%   601    2s
H   35    40                    10944.000000 10770.0509  1.59%   603    2s
   563   186 10884.6689    7  229 10944.0000 10803.0523  1.29%   420    5s

Cutting planes:
  Gomory: 1
  Cover: 7
  Clique: 83
  MIR: 173
  StrongCG: 48
  GUB cover: 96
  Zero half: 15
  RLT: 12

Explored 1673 nodes (583003 simplex iterations) in 7.83 seconds (16.85 work units)
Thread count was 8 (of 8 available processors)

Solution count 10: 10944 11152 11216 ... 12480

Optimal solution found (tolerance 1.00e-04)
Best objective 1.094400000000e+04, best bound 1.094400000000e+04, gap 0.0000%

Gurobi 9.5.2 (mac64[arm]) logging started Mon May  1 21:23:38 2023

Set parameter LogFile to value "Java/output/special_iterative/scenario_seed_0_nJob_40_machineCount_2/mip_increment_2/log.txt"
Gurobi Optimizer version 9.5.2 build v9.5.2rc0 (mac64[arm])
Thread count: 8 physical cores, 8 logical processors, using up to 8 threads
Optimize a model with 1163 rows, 4479 columns and 33711 nonzeros
Model fingerprint: 0x2752e5aa
Variable types: 0 continuous, 4479 integer (4479 binary)
Coefficient statistics:
  Matrix range     [1e+00, 2e+02]
  Objective range  [3e+02, 8e+05]
  Bounds range     [1e+00, 1e+00]
  RHS range        [1e+00, 1e+00]
Found heuristic solution: objective 1773428.0000
Presolve removed 413 rows and 456 columns
Presolve time: 0.04s
Presolved: 750 rows, 4023 columns, 29936 nonzeros
Variable types: 0 continuous, 4023 integer (4021 binary)
Found heuristic solution: objective 1498192.0000

Root relaxation: objective 1.453589e+05, 757 iterations, 0.01 seconds (0.02 work units)

    Nodes    |    Current Node    |     Objective Bounds      |     Work
 Expl Unexpl |  Obj  Depth IntInf | Incumbent    BestBd   Gap | It/Node Time

     0     0 145358.853    0   47 1498192.00 145358.853  90.3%     -    0s
H    0     0                    146856.00000 145358.853  1.02%     -    0s
     0     0 145650.470    0   34 146856.000 145650.470  0.82%     -    0s
     0     0 145650.470    0   17 146856.000 145650.470  0.82%     -    0s
H    0     0                    146588.00000 145650.470  0.64%     -    0s
     0     0 146516.000    0   20 146588.000 146516.000  0.05%     -    0s
H    0     0                    146532.00000 146516.000  0.01%     -    0s
H    0     0                    146520.00000 146516.000  0.00%     -    0s

Cutting planes:
  Gomory: 1
  Cover: 1
  MIR: 1
  StrongCG: 1
  GUB cover: 4
  Relax-and-lift: 1

Explored 1 nodes (1647 simplex iterations) in 0.15 seconds (0.22 work units)
Thread count was 8 (of 8 available processors)

Solution count 6: 146520 146532 146588 ... 1.77343e+06

Optimal solution found (tolerance 1.00e-04)
Best objective 1.465200000000e+05, best bound 1.465160000000e+05, gap 0.0027%

Gurobi 9.5.2 (mac64[arm]) logging started Mon May  1 21:23:38 2023

Set parameter LogFile to value "Java/output/special_iterative/scenario_seed_0_nJob_40_machineCount_2/mip_increment_2/log.txt"
Gurobi Optimizer version 9.5.2 build v9.5.2rc0 (mac64[arm])
Thread count: 8 physical cores, 8 logical processors, using up to 8 threads
Optimize a model with 1170 rows, 3299 columns and 23300 nonzeros
Model fingerprint: 0xa973aeca
Variable types: 0 continuous, 3299 integer (3299 binary)
Coefficient statistics:
  Matrix range     [1e+00, 2e+02]
  Objective range  [1e+02, 2e+05]
  Bounds range     [1e+00, 1e+00]
  RHS range        [1e+00, 1e+00]
Found heuristic solution: objective 1114338.0000
Presolve removed 659 rows and 579 columns
Presolve time: 0.03s
Presolved: 511 rows, 2720 columns, 18914 nonzeros
Variable types: 0 continuous, 2720 integer (2720 binary)
Found heuristic solution: objective 1079288.0000

Root relaxation: objective 3.363205e+05, 983 iterations, 0.02 seconds (0.03 work units)

    Nodes    |    Current Node    |     Objective Bounds      |     Work
 Expl Unexpl |  Obj  Depth IntInf | Incumbent    BestBd   Gap | It/Node Time

     0     0 336320.517    0   78 1079288.00 336320.517  68.8%     -    0s
H    0     0                    644573.00000 336320.517  47.8%     -    0s
H    0     0                    493047.00000 336320.517  31.8%     -    0s
H    0     0                    458612.00000 336320.517  26.7%     -    0s
H    0     0                    422023.00000 336320.517  20.3%     -    0s
H    0     0                    406323.00000 336320.517  17.2%     -    0s
H    0     0                    400319.00000 338158.218  15.5%     -    0s
H    0     0                    395053.00000 338158.218  14.4%     -    0s
     0     0 338158.218    0  118 395053.000 338158.218  14.4%     -    0s
H    0     0                    391851.00000 338158.218  13.7%     -    0s
H    0     0                    382697.00000 338589.671  11.5%     -    0s
     0     0 338589.671    0  118 382697.000 338589.671  11.5%     -    0s
     0     0 338596.206    0  123 382697.000 338596.206  11.5%     -    0s
     0     0 338596.206    0  124 382697.000 338596.206  11.5%     -    0s
H    0     0                    365241.00000 338596.206  7.30%     -    0s
     0     0 340519.317    0  133 365241.000 340519.317  6.77%     -    0s
     0     0 340723.635    0  140 365241.000 340723.635  6.71%     -    0s
     0     0 340723.635    0  138 365241.000 340723.635  6.71%     -    0s
     0     0 342818.315    0  138 365241.000 342818.315  6.14%     -    0s
H    0     0                    359727.00000 343723.982  4.45%     -    0s
     0     0 343723.982    0  155 359727.000 343723.982  4.45%     -    0s
     0     0 343867.170    0  151 359727.000 343867.170  4.41%     -    0s
     0     0 343932.669    0  157 359727.000 343932.669  4.39%     -    0s
     0     0 343938.179    0  157 359727.000 343938.179  4.39%     -    0s
     0     0 345473.691    0  188 359727.000 345473.691  3.96%     -    0s
H    0     0                    352043.00000 345473.691  1.87%     -    0s
     0     0 345697.150    0  192 352043.000 345697.150  1.80%     -    0s
     0     0 345809.659    0  185 352043.000 345809.659  1.77%     -    0s
     0     0 345843.348    0  192 352043.000 345843.348  1.76%     -    0s
     0     0 345867.198    0  197 352043.000 345867.198  1.75%     -    0s
     0     0 345871.290    0  189 352043.000 345871.290  1.75%     -    0s
     0     0 346085.894    0  188 352043.000 346085.894  1.69%     -    0s
     0     0 346085.894    0   78 352043.000 346085.894  1.69%     -    0s
     0     0 346085.894    0  143 352043.000 346085.894  1.69%     -    0s
     0     0 346085.894    0  158 352043.000 346085.894  1.69%     -    0s
H    0     0                    351721.00000 346085.894  1.60%     -    0s
     0     0 346085.894    0  177 351721.000 346085.894  1.60%     -    0s
     0     0 346168.445    0  184 351721.000 346168.445  1.58%     -    0s
     0     0 346181.336    0  185 351721.000 346181.336  1.58%     -    0s
     0     0 346441.527    0  203 351721.000 346441.527  1.50%     -    0s
     0     0 346451.597    0  200 351721.000 346451.597  1.50%     -    0s
     0     0 346462.159    0  205 351721.000 346462.159  1.50%     -    0s
     0     0 346576.203    0  205 351721.000 346576.203  1.46%     -    0s
     0     0 346675.145    0  198 351721.000 346675.145  1.43%     -    0s
     0     0 346693.431    0  202 351721.000 346693.431  1.43%     -    0s
     0     0 346693.790    0  204 351721.000 346693.790  1.43%     -    0s
     0     0 346770.499    0  184 351721.000 346770.499  1.41%     -    0s
     0     0 346821.492    0  193 351721.000 346821.492  1.39%     -    0s
     0     0 346826.477    0  196 351721.000 346826.477  1.39%     -    0s
     0     0 346845.638    0  202 351721.000 346845.638  1.39%     -    0s
     0     0 346845.638    0  200 351721.000 346845.638  1.39%     -    0s
H    0     0                    351532.00000 346852.724  1.33%     -    0s
     0     2 346852.724    0  200 351532.000 346852.724  1.33%     -    0s
*  416   113              16    351278.00000 348589.690  0.77%  71.5    1s

Cutting planes:
  Gomory: 1
  Cover: 7
  Clique: 48
  MIR: 73
  StrongCG: 20
  GUB cover: 40
  Zero half: 9
  Mod-K: 2
  RLT: 10

Explored 738 nodes (52409 simplex iterations) in 1.40 seconds (2.15 work units)
Thread count was 8 (of 8 available processors)

Solution count 10: 351278 351532 351721 ... 400319

Optimal solution found (tolerance 1.00e-04)
Best objective 3.512780000001e+05, best bound 3.512780000001e+05, gap 0.0000%

Gurobi 9.5.2 (mac64[arm]) logging started Mon May  1 21:23:39 2023

Set parameter LogFile to value "Java/output/special_iterative/scenario_seed_0_nJob_40_machineCount_2/mip_increment_2/log.txt"
Gurobi Optimizer version 9.5.2 build v9.5.2rc0 (mac64[arm])
Thread count: 8 physical cores, 8 logical processors, using up to 8 threads
Optimize a model with 2398 rows, 44286 columns and 553084 nonzeros
Model fingerprint: 0x4ca410d7
Variable types: 0 continuous, 44286 integer (44286 binary)
Coefficient statistics:
  Matrix range     [1e+00, 2e+02]
  Objective range  [1e+00, 4e+06]
  Bounds range     [1e+00, 1e+00]
  RHS range        [1e+00, 1e+00]

Warning: Completing partial solution with 44165 unfixed non-continuous variables out of 44286
User MIP start produced solution with objective 332003 (0.04s)
Loaded user MIP start with objective 332003

Presolve removed 144 rows and 6286 columns
Presolve time: 0.57s
Presolved: 2254 rows, 38000 columns, 477271 nonzeros
Variable types: 0 continuous, 38000 integer (38000 binary)
Found heuristic solution: objective 316487.00000

Root simplex log...

Iteration    Objective       Primal Inf.    Dual Inf.      Time
   27028    1.7643600e+04   9.188618e+04   0.000000e+00      5s
Warning: Markowitz tolerance tightened to 0.03125
   47894    1.7982524e+04   3.139923e+02   0.000000e+00     10s
   48138    1.7982622e+04   0.000000e+00   0.000000e+00     10s

Root relaxation: objective 1.798262e+04, 48138 iterations, 9.47 seconds (24.91 work units)

    Nodes    |    Current Node    |     Objective Bounds      |     Work
 Expl Unexpl |  Obj  Depth IntInf | Incumbent    BestBd   Gap | It/Node Time

     0     0 17982.6221    0  513 316487.000 17982.6221  94.3%     -   10s
H    0     0                    304878.00000 17982.6221  94.1%     -   10s
H    0     0                    304218.00000 17982.6221  94.1%     -   10s
H    0     0                    281875.00000 17982.6221  93.6%     -   10s
     0     0 18028.6396    0  640 281875.000 18028.6396  93.6%     -   15s
H    0     0                    281464.00000 18028.6396  93.6%     -   15s
     0     0 18053.6512    0  700 281464.000 18053.6512  93.6%     -   19s
     0     0 18055.3841    0  695 281464.000 18055.3841  93.6%     -   20s
     0     0 18055.4851    0  693 281464.000 18055.4851  93.6%     -   20s
     0     0 18055.4901    0  683 281464.000 18055.4901  93.6%     -   20s
     0     0 18381.9477    0  715 281464.000 18381.9477  93.5%     -   27s
H    0     0                    278470.00000 18381.9477  93.4%     -   27s
     0     0 18386.2434    0  752 278470.000 18386.2434  93.4%     -   29s
     0     0 18386.9332    0  758 278470.000 18386.9332  93.4%     -   29s
     0     0 18386.9797    0  774 278470.000 18386.9797  93.4%     -   29s
     0     0 18446.9030    0  821 278470.000 18446.9030  93.4%     -   34s
     0     0 18456.0769    0  809 278470.000 18456.0769  93.4%     -   40s
     0     0 18457.5086    0  834 278470.000 18457.5086  93.4%     -   41s
     0     0 18457.7490    0  835 278470.000 18457.7490  93.4%     -   41s
     0     0 18457.7829    0  838 278470.000 18457.7829  93.4%     -   42s
     0     0 18499.4687    0  886 278470.000 18499.4687  93.4%     -   46s
H    0     0                    277955.00000 18499.4687  93.3%     -   46s
     0     0 18506.6644    0  891 277955.000 18506.6644  93.3%     -   48s
     0     0 18510.0203    0  887 277955.000 18510.0203  93.3%     -   49s
     0     0 18510.3963    0  890 277955.000 18510.3963  93.3%     -   49s
     0     0 18510.4107    0  901 277955.000 18510.4107  93.3%     -   49s
     0     0 18534.6876    0  898 277955.000 18534.6876  93.3%     -   52s
H    0     0                    277947.00000 18534.6876  93.3%     -   53s
     0     0 18550.9417    0  922 277947.000 18550.9417  93.3%     -   60s
     0     0 18554.8516    0  932 277947.000 18554.8516  93.3%     -   61s
     0     0 18555.7132    0  926 277947.000 18555.7132  93.3%     -   61s
     0     0 18556.3800    0  946 277947.000 18556.3800  93.3%     -   62s
     0     0 18556.6237    0  963 277947.000 18556.6237  93.3%     -   62s
     0     0 18556.6250    0  966 277947.000 18556.6250  93.3%     -   62s
     0     0 18573.8826    0  949 277947.000 18573.8826  93.3%     -   64s
H    0     0                    250972.00000 18573.8826  92.6%     -   65s
     0     0 18587.7151    0 1000 250972.000 18587.7151  92.6%     -   67s
     0     0 18589.9467    0 1008 250972.000 18589.9467  92.6%     -   68s
     0     0 18590.2725    0 1012 250972.000 18590.2725  92.6%     -   68s
     0     0 18590.4977    0 1026 250972.000 18590.4977  92.6%     -   69s
     0     0 18628.4788    0 1026 250972.000 18628.4788  92.6%     -   72s
H    0     0                    250362.00000 18628.4788  92.6%     -   72s
     0     0 18640.4203    0 1030 250362.000 18640.4203  92.6%     -   74s
     0     0 18642.8935    0 1064 250362.000 18642.8935  92.6%     -   75s
     0     0 18643.4308    0 1076 250362.000 18643.4308  92.6%     -   75s
     0     0 18643.5017    0 1082 250362.000 18643.5017  92.6%     -   75s
     0     0 18666.6268    0 1096 250362.000 18666.6268  92.5%     -   78s
H    0     0                    240061.00000 18666.6268  92.2%     -   78s
     0     0 18678.0985    0 1071 240061.000 18678.0985  92.2%     -   80s
     0     0 18680.4701    0 1095 240061.000 18680.4701  92.2%     -   81s
     0     0 18680.9295    0 1111 240061.000 18680.9295  92.2%     -   81s
     0     0 18681.0051    0 1113 240061.000 18681.0051  92.2%     -   82s
     0     0 18707.3122    0 1085 240061.000 18707.3122  92.2%     -   85s
     0     0 18711.1783    0 1110 240061.000 18711.1783  92.2%     -   86s
     0     0 18711.6610    0 1124 240061.000 18711.6610  92.2%     -   87s
     0     0 18711.9222    0 1140 240061.000 18711.9222  92.2%     -   87s
     0     0 18737.5673    0 1118 240061.000 18737.5673  92.2%     -   90s
H    0     0                    235251.00000 18737.5673  92.0%     -   91s
     0     0 18741.2515    0 1161 235251.000 18741.2515  92.0%     -   92s
     0     0 18743.3630    0 1165 235251.000 18743.3630  92.0%     -   93s
     0     0 18744.5700    0 1163 235251.000 18744.5700  92.0%     -   94s
     0     0 18744.8883    0 1182 235251.000 18744.8883  92.0%     -   95s
     0     0 18785.7275    0 1148 235251.000 18785.7275  92.0%     -   99s
H    0     0                    203896.00000 18785.7275  90.8%     -  115s
     0     0 18799.3614    0 1159 203896.000 18799.3614  90.8%     -  117s
     0     0 18804.3081    0 1155 203896.000 18804.3081  90.8%     -  119s
     0     0 18804.8953    0 1169 203896.000 18804.8953  90.8%     -  120s
     0     0 18805.0223    0 1164 203896.000 18805.0223  90.8%     -  120s
     0     0 18889.3066    0 1108 203896.000 18889.3066  90.7%     -  125s
H    0     0                    203891.00000 18889.3066  90.7%     -  126s
H    0     0                    199157.00000 18889.3066  90.5%     -  126s
     0     0 18913.4354    0 1110 199157.000 18913.4354  90.5%     -  129s
     0     0 18917.6720    0 1104 199157.000 18917.6720  90.5%     -  131s
     0     0 18919.4691    0 1116 199157.000 18919.4691  90.5%     -  131s
     0     0 18919.9301    0 1124 199157.000 18919.9301  90.5%     -  132s
     0     0 18972.2729    0 1128 199157.000 18972.2729  90.5%     -  136s
H    0     0                    199141.00000 18972.2729  90.5%     -  136s
     0     0 18978.6272    0 1162 199141.000 18978.6272  90.5%     -  138s
     0     0 18985.1709    0 1166 199141.000 18985.1709  90.5%     -  140s
     0     0 18988.9192    0 1161 199141.000 18988.9192  90.5%     -  141s
     0     0 18989.0781    0 1166 199141.000 18989.0781  90.5%     -  142s
     0     0 19034.6558    0 1186 199141.000 19034.6558  90.4%     -  147s
H    0     0                    193971.00000 19034.6558  90.2%     -  147s
     0     0 19040.7210    0 1220 193971.000 19040.7210  90.2%     -  149s
     0     0 19045.6800    0 1223 193971.000 19045.6800  90.2%     -  151s
     0     0 19046.8044    0 1245 193971.000 19046.8044  90.2%     -  152s
     0     0 19047.0658    0 1231 193971.000 19047.0658  90.2%     -  152s
     0     0 19072.8081    0 1208 193971.000 19072.8081  90.2%     -  157s
H    0     0                    193955.00000 19072.8081  90.2%     -  157s
H    0     0                    193563.00000 19072.8081  90.1%     -  157s
     0     0 19077.1529    0 1227 193563.000 19077.1529  90.1%     -  159s
     0     0 19078.0883    0 1229 193563.000 19078.0883  90.1%     -  159s
     0     0 19078.4134    0 1240 193563.000 19078.4134  90.1%     -  160s
     0     0 19095.4246    0 1227 193563.000 19095.4246  90.1%     -  163s
H    0     0                    193003.00000 19095.4246  90.1%     -  163s
     0     0 19097.4498    0 1217 193003.000 19097.4498  90.1%     -  164s
     0     0 19097.8545    0 1231 193003.000 19097.8545  90.1%     -  165s
     0     0 19127.1664    0 1201 193003.000 19127.1664  90.1%     -  168s
     0     0 19129.7669    0 1240 193003.000 19129.7669  90.1%     -  170s
     0     0 19130.3760    0 1239 193003.000 19130.3760  90.1%     -  170s
     0     0 19143.2104    0 1243 193003.000 19143.2104  90.1%     -  173s
H    0     0                    157307.00000 19143.2104  87.8%     -  174s
     0     0 19148.4209    0 1260 157307.000 19148.4209  87.8%     -  177s
     0     0 19149.5263    0 1288 157307.000 19149.5263  87.8%     -  178s
     0     0 19149.7089    0 1276 157307.000 19149.7089  87.8%     -  178s
     0     0 19153.4429    0 1275 157307.000 19153.4429  87.8%     -  180s
H    0     0                    157267.00000 19153.4429  87.8%     -  180s
     0     0 19153.9182    0 1283 157267.000 19153.9182  87.8%     -  181s
     0     0 19176.5606    0 1237 157267.000 19176.5606  87.8%     -  186s
H    0     0                    146185.00000 19176.5606  86.9%     -  187s
     0     0 19181.4704    0 1259 146185.000 19181.4704  86.9%     -  189s
     0     0 19183.4712    0 1242 146185.000 19183.4712  86.9%     -  190s
     0     0 19183.8339    0 1260 146185.000 19183.8339  86.9%     -  190s
     0     0 19237.7628    0 1238 146185.000 19237.7628  86.8%     -  197s
H    0     0                    140393.00000 19237.7628  86.3%     -  197s
H    0     0                    140357.00000 19237.7628  86.3%     -  197s
     0     0 19242.2016    0 1243 140357.000 19242.2016  86.3%     -  198s
     0     0 19244.6154    0 1253 140357.000 19244.6154  86.3%     -  200s
     0     0 19245.5245    0 1284 140357.000 19245.5245  86.3%     -  200s
     0     0 19309.5260    0 1274 140357.000 19309.5260  86.2%     -  206s
H    0     0                    139616.00000 19309.5260  86.2%     -  207s
     0     0 19313.7766    0 1274 139616.000 19313.7766  86.2%     -  208s
     0     0 19320.0903    0 1287 139616.000 19320.0903  86.2%     -  210s
     0     0 19322.2206    0 1305 139616.000 19322.2206  86.2%     -  211s
     0     0 19322.9254    0 1327 139616.000 19322.9254  86.2%     -  212s
     0     0 19343.6650    0 1292 139616.000 19343.6650  86.1%     -  216s
H    0     0                    139584.00000 19343.6650  86.1%     -  216s
H    0     0                    136458.00000 19343.6650  85.8%     -  216s
     0     0 19348.0991    0 1294 136458.000 19348.0991  85.8%     -  218s
     0     0 19349.0474    0 1329 136458.000 19349.0474  85.8%     -  219s
     0     0 19356.8227    0 1288 136458.000 19356.8227  85.8%     -  221s
H    0     0                    134713.00000 19356.8227  85.6%     -  222s
     0     0 19359.9276    0 1310 134713.000 19359.9276  85.6%     -  223s
     0     0 19360.7824    0 1319 134713.000 19360.7824  85.6%     -  224s
     0     0 19370.1188    0 1304 134713.000 19370.1188  85.6%     -  227s
H    0     0                    134513.00000 19370.1188  85.6%     -  227s
     0     0 19372.2166    0 1341 134513.000 19372.2166  85.6%     -  229s
     0     0 19372.7106    0 1339 134513.000 19372.7106  85.6%     -  229s
     0     0 19384.4893    0 1318 134513.000 19384.4893  85.6%     -  234s
H    0     0                    133925.00000 19384.4893  85.5%     -  235s
     0     0 19386.5047    0 1350 133925.000 19386.5047  85.5%     -  236s
     0     0 19386.7529    0 1345 133925.000 19386.7529  85.5%     -  236s
     0     0 19394.4070    0 1352 133925.000 19394.4070  85.5%     -  239s
     0     0 19394.4070    0 1347 133925.000 19394.4070  85.5%     -  240s
H    0     0                    113271.00000 19394.4070  82.9%     -  287s
     0     0 19394.4070    0  518 113271.000 19394.4070  82.9%     -  296s
H    0     0                    111912.00000 19394.4070  82.7%     -  296s
H    0     0                    109464.00000 19394.4070  82.3%     -  296s
     0     0 19394.4070    0  659 109464.000 19394.4070  82.3%     -  300s
     0     0 19394.4070    0  740 109464.000 19394.4070  82.3%     -  306s
     0     0 19394.4070    0  775 109464.000 19394.4070  82.3%     -  310s
     0     0 19394.4070    0  857 109464.000 19394.4070  82.3%     -  314s
     0     0 19394.4070    0  915 109464.000 19394.4070  82.3%     -  316s
     0     0 19394.4070    0 1037 109464.000 19394.4070  82.3%     -  319s
     0     0 19394.4070    0 1054 109464.000 19394.4070  82.3%     -  322s
H    0     0                    107079.00000 19394.4070  81.9%     -  327s
     0     0 19394.4070    0 1091 107079.000 19394.4070  81.9%     -  327s
     0     0 19394.4070    0 1170 107079.000 19394.4070  81.9%     -  330s
     0     0 19404.1191    0 1206 107079.000 19404.1191  81.9%     -  333s
     0     0 19407.4152    0 1254 107079.000 19407.4152  81.9%     -  334s
     0     0 19407.7708    0 1266 107079.000 19407.7708  81.9%     -  335s
     0     0 19408.9543    0 1263 107079.000 19408.9543  81.9%     -  335s
     0     0 19409.0420    0 1268 107079.000 19409.0420  81.9%     -  335s
     0     0 19409.0530    0 1271 107079.000 19409.0530  81.9%     -  336s
     0     0 19434.3795    0 1293 107079.000 19434.3795  81.9%     -  339s
H    0     0                    107047.00000 19434.3795  81.8%     -  339s
     0     0 19441.7804    0 1282 107047.000 19441.7804  81.8%     -  341s
     0     0 19443.7423    0 1267 107047.000 19443.7423  81.8%     -  342s
     0     0 19444.0570    0 1286 107047.000 19444.0570  81.8%     -  342s
     0     0 19474.0102    0 1280 107047.000 19474.0102  81.8%     -  345s
H    0     0                    107046.00000 19474.0102  81.8%     -  370s
     0     0 19478.9213    0 1290 107046.000 19478.9213  81.8%     -  372s
     0     0 19480.4476    0 1318 107046.000 19480.4476  81.8%     -  372s
     0     0 19481.2564    0 1304 107046.000 19481.2564  81.8%     -  373s
     0     0 19488.8010    0 1330 107046.000 19488.8010  81.8%     -  375s
H    0     0                    105431.00000 19488.8010  81.5%     -  375s
     0     0 19491.1811    0 1342 105431.000 19491.1811  81.5%     -  376s
     0     0 19492.0851    0 1366 105431.000 19492.0851  81.5%     -  377s
     0     0 19499.9595    0 1354 105431.000 19499.9595  81.5%     -  379s
     0     0 19499.9595    0 1341 105431.000 19499.9595  81.5%     -  380s
     0     2 19499.9908    0 1328 105431.000 19499.9908  81.5%     -  393s
     1     4 19652.6837    1 1229 105431.000 19499.9908  81.5% 24850  406s
     3     8 19819.2905    2 1153 105431.000 19515.8167  81.5% 13948  414s
     7    16 19845.0322    3 1202 105431.000 19549.2162  81.5%  9531  423s
    15    24 19877.5597    4 1213 105431.000 19556.0180  81.5%  8888  437s
    23    32 19886.2594    4 1233 105431.000 19556.0180  81.5% 11257  454s
H   31    40                    97597.000000 19556.9498  80.0% 12671  494s
H   32    40                    97574.000000 19556.9498  80.0% 12425  494s
    39    48 19965.7870    5 1141 97574.0000 19556.9498  80.0% 11355  517s
    47    60 19905.1022    6 1194 97574.0000 19556.9498  80.0% 11240  529s
    59    71 19913.7855    7 1194 97574.0000 19557.0272  80.0% 10633  544s
H   70    80                    91838.000000 19557.0272  78.7%  9920  559s
H   78    80                    90709.000000 19557.0272  78.4%  9648  559s
    79    90 19931.4279    8 1170 90709.0000 19557.0272  78.4%  9719  568s
    89    99 19965.8463    8 1218 90709.0000 19557.0272  78.4%  9416  589s

Cutting planes:
  Cover: 7
  Clique: 207
  MIR: 348
  StrongCG: 191
  GUB cover: 301
  RLT: 2

Explored 98 nodes (1453667 simplex iterations) in 589.02 seconds (1691.22 work units)
Thread count was 8 (of 8 available processors)

Solution count 10: 90709 91838 97574 ... 111912

Time limit reached
Best objective 9.070900000000e+04, best bound 1.955800000000e+04, gap 78.4387%
